(set-logic QF_S)
(declare-fun var0 () String)
(declare-fun var1 () String)
(declare-fun var2 () Int)
(declare-fun var3 () String)
(declare-fun var4 () Int)
(declare-fun var5 () Int)
(declare-fun var6 () String)
(declare-fun var7 () Int)
(assert (not (> (str.len "^*(7:PTs") (str.to.int var0))))
(assert (str.contains (str.at var1 var2) (str.substr var3 var4 var5)))
(assert (str.contains var6 var1))
(assert (<= var7 var7))
(check-sat)